\ENCODING=ISO-8859-1
\Problem name: IloCplex

Minimize
 obj: 350 x1 + 150 x2 + 350 x3 + 150 x4 + 350 x5 + 150 x6 + 350 x7 + 150 x8
      + 100 x9 + 100 x10 + 100 x11 + 100 x12 + 100 x13 + 100 x14 + 100 x15
      + 100 x16 + 90 x17 + 70 x18 + 90 x19 + 70 x20 + 90 x21 + 70 x22 + 90 x23
      + 70 x24 + x25
Subject To
 c1:  x2 - x26  = -1
 c2:  x10 - x27  = -2
 c3:  x18 - x28  = -2
 c4:  - x2 + x4 - x29  = -10
 c5:  - x10 + x12 - x30  = -4
 c6:  - x18 + x20 - x31  = -4
 c7:  - x4 + x6 - x32  = -3
 c8:  - x12 + x14 - x33  = 0
 c9:  - x20 + x22 - x34  = 0
 c10: - x6 + x8 - x35  = -10
 c11: - x14 + x16 - x36  = -5
 c12: - x22 + x24 - x37  = -5
 c13: 40 x1 + 40 x9 + 40 x17 + 20 x26 + 10 x27 + 20 x28 <= 280
 c14: 40 x3 + 40 x11 + 40 x19 + 20 x29 + 10 x30 + 20 x31 <= 320
 c15: 40 x5 + 40 x13 + 40 x21 + 20 x32 + 10 x33 + 20 x34 <= 280
 c16: 40 x7 + 40 x15 + 40 x23 + 20 x35 + 10 x36 + 20 x37 <= 400
 c17: x38 + x39 + x40 <= 1
 c18: x41 + x42 + x43 <= 1
 c19: x44 + x45 + x46 <= 1
 c20: x47 + x48 + x49 <= 1
 c21: - x1 - x38 + x41 <= 0
 c22: - x9 - x39 + x42 <= 0
 c23: - x17 - x40 + x43 <= 0
 c24: - x3 - x41 + x44 <= 0
 c25: - x11 - x42 + x45 <= 0
 c26: - x19 - x43 + x46 <= 0
 c27: - x5 - x44 + x47 <= 0
 c28: - x13 - x45 + x48 <= 0
 c29: - x21 - x46 + x49 <= 0
 c30: x1 + x50 <= 1
 c31: x9 + x50 <= 1
 c32: x17 + x50 <= 1
 c33: x3 + x51 <= 1
 c34: x11 + x51 <= 1
 c35: x19 + x51 <= 1
 c36: x5 + x52 <= 1
 c37: x13 + x52 <= 1
 c38: x21 + x52 <= 1
 c39: x38 + x41 + x50 <= 1
 c40: x39 + x42 + x50 <= 1
 c41: x40 + x43 + x50 <= 1
 c42: x41 + x44 + x51 <= 1
 c43: x42 + x45 + x51 <= 1
 c44: x43 + x46 + x51 <= 1
 c45: x44 + x47 + x52 <= 1
 c46: x45 + x48 + x52 <= 1
 c47: x46 + x49 + x52 <= 1
 c48: - 12 x1 + x26 <= 0
 c49: - 24 x9 + x27 <= 0
 c50: - 12 x17 + x28 <= 0
 c51: - 14 x3 + x29 <= 0
 c52: - 23 x11 + x30 <= 0
 c53: - 14 x19 + x31 <= 0
 c54: - 12 x5 + x32 <= 0
 c55: - 17 x13 + x33 <= 0
 c56: - 12 x21 + x34 <= 0
 c57: - 18 x7 + x35 <= 0
 c58: - 11 x15 + x36 <= 0
 c59: - 11 x23 + x37 <= 0
Bounds
 0 <= x1 <= 1
 0 <= x2 <= 1000000
 0 <= x3 <= 1
 0 <= x4 <= 1000000
 0 <= x5 <= 1
 0 <= x6 <= 1000000
 0 <= x7 <= 1
 0 <= x8 <= 1000000
 0 <= x9 <= 1
 0 <= x10 <= 1000000
 0 <= x11 <= 1
 0 <= x12 <= 1000000
 0 <= x13 <= 1
 0 <= x14 <= 1000000
 0 <= x15 <= 1
 0 <= x16 <= 1000000
 0 <= x17 <= 1
 0 <= x18 <= 1000000
 0 <= x19 <= 1
 0 <= x20 <= 1000000
 0 <= x21 <= 1
 0 <= x22 <= 1000000
 0 <= x23 <= 1
 0 <= x24 <= 1000000
      x25 = 0
 0 <= x26 <= 1000000
 0 <= x27 <= 1000000
 0 <= x28 <= 1000000
 0 <= x29 <= 1000000
 0 <= x30 <= 1000000
 0 <= x31 <= 1000000
 0 <= x32 <= 1000000
 0 <= x33 <= 1000000
 0 <= x34 <= 1000000
 0 <= x35 <= 1000000
 0 <= x36 <= 1000000
 0 <= x37 <= 1000000
 0 <= x38 <= 1
 0 <= x39 <= 1
 0 <= x40 <= 1
 0 <= x41 <= 1
 0 <= x42 <= 1
 0 <= x43 <= 1
 0 <= x44 <= 1
 0 <= x45 <= 1
 0 <= x46 <= 1
 0 <= x47 <= 1
 0 <= x48 <= 1
 0 <= x49 <= 1
 0 <= x50 <= 1000000
 0 <= x51 <= 1000000
 0 <= x52 <= 1000000
Binaries
 x1  x3  x5  x7  x9  x11  x13  x15  x17  x19  x21  x23  x38  x39  x40  x41 
 x42  x43  x44  x45  x46  x47  x48  x49 
End
